<number of tasks>
50

<cycle time>
1000

<order strength>
0.596


<task times>
1 276
2 150
3 203
4 123
5 172
6 94
7 87
8 281
9 182
10 381
11 48
12 122
13 83
14 25
15 201
16 227
17 105
18 264
19 53
20 122
21 200
22 42
23 142
24 172
25 84
26 132
27 56
28 94
29 160
30 72
31 209
32 36
33 222
34 100
35 98
36 126
37 139
38 105
39 92
40 100
41 127
42 182
43 146
44 154
45 86
46 203
47 162
48 36
49 72
50 57

<precedence relations>
1,36
2,12
3,12
4,12
5,22
6,9
7,8
7,9
8,33
9,10
9,11
10,12
11,12
11,13
11,14
12,15
12,16
12,17
12,18
12,19
13,20
13,32
14,28
14,29
14,34
15,21
15,25
15,30
15,32
17,22
17,23
17,24
17,25
18,22
18,24
19,33
20,23
21,33
22,26
22,30
22,41
23,29
23,30
24,27
24,28
24,31
25,26
25,27
26,36
27,36
28,33
29,33
30,46
31,32
31,34
31,35
31,41
31,46
32,36
33,36
33,37
33,38
33,39
33,40
33,41
34,36
35,36
35,49
36,42
36,43
36,44
36,45
37,46
37,50
38,48
39,46
39,47
41,47
42,50
44,48
44,50
46,49
47,49

<end>
